(set-logic QF_NRA)
(declare-fun skoY () Real)
(declare-fun pi () Real)
(declare-fun skoX () Real)
(assert (and (not (<= (+ (* 483840 skoY) (* (- 967680) (* skoY skoY pi skoX)) (* 322560 (* skoY skoY skoY skoY pi skoX)) (* (- 41664) (* skoY skoY skoY skoY skoY skoY pi skoX)) (* 2376 (* skoY skoY skoY skoY skoY skoY skoY skoY pi skoX)) (* (- 68) (* skoY skoY skoY skoY skoY skoY skoY skoY skoY skoY pi skoX)) (* skoY skoY skoY skoY skoY skoY skoY skoY skoY skoY skoY skoY pi skoX)) 0)) (and (<= (+ (* 10 skoY) (* (- 5) pi)) (- 2)) (and (not (<= (* 5000000 pi) 15707963)) (and (not (<= (* (- 10000000) pi) (- 31415927))) (and (<= (* (- 10) skoX) (- 1)) (not (<= (+ skoY (* (- 1) skoX)) 0))))))))
(set-info :status sat)
(check-sat)
